% demand
num_movements = 15;
loading_factor = [900, 1800, 800, 900, 1650, 950, 1400, 950, 1600, 900, 850, 1300, 1550, 1350, 1200];
pickup_time = [0, 0, 0, 0, 0, 0, 1, 2, 2, 4, 5, 7, 7, 10, 10];
delivery_time = [1, 2, 10, 1, 4, 2, 6, 4, 10, 10, 11, 11, 11, 11, 11];

% transporter definition
total_capacity = 7000;
num_decks = 3;
capacity = [3000, 1000, 3000];

% ways out of decks
num_ways_out = 1;
paths_out = array3d(decks, ways_out, decks, [
% ways out of deck d1
2, 3, 0, 

% ways out of deck d2
3, 0, 0, 

% ways out of deck d3
0, 0, 0,	

]);

